; Options: -in -smt2
(set-option :produce-unsat-assumptions true)

(declare-fun start!41554 () Bool)

(assert start!41554)

(declare-fun b!195176 () Bool)

(declare-fun res!163259 () Bool)

(declare-fun e!134202 () Bool)

(assert (=> b!195176 (=> res!163259 e!134202)))

(declare-fun i!590 () (_ BitVec 32))

(declare-fun nBits!348 () (_ BitVec 32))

(declare-fun lt!303685 () (_ BitVec 64))

(declare-datatypes ((array!10012 0))(
  ( (array!10013 (arr!5345 (Array (_ BitVec 32) (_ BitVec 8))) (size!4415 (_ BitVec 32))) )
))
(declare-datatypes ((BitStream!7938 0))(
  ( (BitStream!7939 (buf!4901 array!10012) (currentByte!9197 (_ BitVec 32)) (currentBit!9192 (_ BitVec 32))) )
))
(declare-fun thiss!1204 () BitStream!7938)

(declare-datatypes ((Unit!13785 0))(
  ( (Unit!13786) )
))
(declare-datatypes ((tuple2!16876 0))(
  ( (tuple2!16877 (_1!9083 Unit!13785) (_2!9083 BitStream!7938)) )
))
(declare-fun lt!303676 () tuple2!16876)

(declare-fun lt!303699 () (_ BitVec 64))

(assert (=> b!195176 (= res!163259 (or (not (= (size!4415 (buf!4901 (_2!9083 lt!303676))) (size!4415 (buf!4901 thiss!1204)))) (not (= lt!303699 (bvsub (bvadd lt!303685 ((_ sign_extend 32) nBits!348)) ((_ sign_extend 32) i!590))))))))

(declare-fun b!195177 () Bool)

(declare-fun e!134209 () Bool)

(declare-fun e!134204 () Bool)

(assert (=> b!195177 (= e!134209 e!134204)))

(declare-fun res!163270 () Bool)

(assert (=> b!195177 (=> (not res!163270) (not e!134204))))

(declare-fun lt!303683 () Bool)

(declare-fun lt!303692 () tuple2!16876)

(declare-datatypes ((tuple2!16878 0))(
  ( (tuple2!16879 (_1!9084 BitStream!7938) (_2!9084 Bool)) )
))
(declare-fun lt!303678 () tuple2!16878)

(assert (=> b!195177 (= res!163270 (and (= (_2!9084 lt!303678) lt!303683) (= (_1!9084 lt!303678) (_2!9083 lt!303692))))))

(declare-fun readBitPure!0 (BitStream!7938) tuple2!16878)

(declare-fun readerFrom!0 (BitStream!7938 (_ BitVec 32) (_ BitVec 32)) BitStream!7938)

(assert (=> b!195177 (= lt!303678 (readBitPure!0 (readerFrom!0 (_2!9083 lt!303692) (currentBit!9192 thiss!1204) (currentByte!9197 thiss!1204))))))

(declare-fun b!195178 () Bool)

(declare-fun e!134207 () Bool)

(declare-datatypes ((tuple2!16880 0))(
  ( (tuple2!16881 (_1!9085 BitStream!7938) (_2!9085 (_ BitVec 64))) )
))
(declare-fun lt!303680 () tuple2!16880)

(declare-datatypes ((tuple2!16882 0))(
  ( (tuple2!16883 (_1!9086 BitStream!7938) (_2!9086 BitStream!7938)) )
))
(declare-fun lt!303677 () tuple2!16882)

(assert (=> b!195178 (= e!134207 (= (_1!9085 lt!303680) (_2!9086 lt!303677)))))

(declare-fun b!195179 () Bool)

(declare-fun res!163252 () Bool)

(declare-fun e!134205 () Bool)

(assert (=> b!195179 (=> (not res!163252) (not e!134205))))

(declare-fun withMovedBitIndex!0 (BitStream!7938 (_ BitVec 64)) BitStream!7938)

(assert (=> b!195179 (= res!163252 (= (_1!9086 lt!303677) (withMovedBitIndex!0 (_2!9086 lt!303677) (bvsub lt!303685 lt!303699))))))

(declare-fun b!195180 () Bool)

(declare-fun e!134212 () Bool)

(assert (=> b!195180 (= e!134202 e!134212)))

(declare-fun res!163266 () Bool)

(assert (=> b!195180 (=> res!163266 e!134212)))

(declare-fun lt!303702 () tuple2!16880)

(declare-fun lt!303679 () tuple2!16882)

(assert (=> b!195180 (= res!163266 (not (= (_1!9085 lt!303702) (_2!9086 lt!303679))))))

(declare-fun lt!303700 () (_ BitVec 64))

(declare-fun readNBitsLSBFirstsLoopPure!0 (BitStream!7938 (_ BitVec 32) (_ BitVec 32) (_ BitVec 64)) tuple2!16880)

(assert (=> b!195180 (= lt!303702 (readNBitsLSBFirstsLoopPure!0 (_1!9086 lt!303679) nBits!348 (bvadd #b00000000000000000000000000000001 i!590) lt!303700))))

(declare-fun lt!303696 () (_ BitVec 64))

(declare-fun validate_offset_bits!1 ((_ BitVec 64) (_ BitVec 64) (_ BitVec 64) (_ BitVec 64)) Bool)

(assert (=> b!195180 (validate_offset_bits!1 ((_ sign_extend 32) (size!4415 (buf!4901 (_2!9083 lt!303676)))) ((_ sign_extend 32) (currentByte!9197 (_2!9083 lt!303692))) ((_ sign_extend 32) (currentBit!9192 (_2!9083 lt!303692))) lt!303696)))

(declare-fun lt!303682 () Unit!13785)

(declare-fun validateOffsetBitsContentIrrelevancyLemma!0 (BitStream!7938 array!10012 (_ BitVec 64)) Unit!13785)

(assert (=> b!195180 (= lt!303682 (validateOffsetBitsContentIrrelevancyLemma!0 (_2!9083 lt!303692) (buf!4901 (_2!9083 lt!303676)) lt!303696))))

(assert (=> b!195180 (= lt!303696 ((_ sign_extend 32) (bvsub (bvsub nBits!348 i!590) #b00000000000000000000000000000001)))))

(declare-fun lt!303690 () (_ BitVec 64))

(declare-fun lt!303686 () (_ BitVec 64))

(declare-fun lt!303687 () tuple2!16878)

(assert (=> b!195180 (= lt!303700 (bvor lt!303690 (ite (_2!9084 lt!303687) lt!303686 #b0000000000000000000000000000000000000000000000000000000000000000)))))

(assert (=> b!195180 (= lt!303680 (readNBitsLSBFirstsLoopPure!0 (_1!9086 lt!303677) nBits!348 i!590 lt!303690))))

(declare-fun lt!303698 () (_ BitVec 64))

(assert (=> b!195180 (validate_offset_bits!1 ((_ sign_extend 32) (size!4415 (buf!4901 (_2!9083 lt!303676)))) ((_ sign_extend 32) (currentByte!9197 thiss!1204)) ((_ sign_extend 32) (currentBit!9192 thiss!1204)) lt!303698)))

(declare-fun lt!303697 () Unit!13785)

(assert (=> b!195180 (= lt!303697 (validateOffsetBitsContentIrrelevancyLemma!0 thiss!1204 (buf!4901 (_2!9083 lt!303676)) lt!303698))))

(declare-fun v!189 () (_ BitVec 64))

(declare-fun onesLSBLong!0 ((_ BitVec 32)) (_ BitVec 64))

(assert (=> b!195180 (= lt!303690 (bvand v!189 (onesLSBLong!0 i!590)))))

(assert (=> b!195180 (= (_2!9084 lt!303687) lt!303683)))

(assert (=> b!195180 (= lt!303687 (readBitPure!0 (_1!9086 lt!303677)))))

(declare-fun reader!0 (BitStream!7938 BitStream!7938) tuple2!16882)

(assert (=> b!195180 (= lt!303679 (reader!0 (_2!9083 lt!303692) (_2!9083 lt!303676)))))

(assert (=> b!195180 (= lt!303677 (reader!0 thiss!1204 (_2!9083 lt!303676)))))

(declare-fun e!134206 () Bool)

(assert (=> b!195180 e!134206))

(declare-fun res!163261 () Bool)

(assert (=> b!195180 (=> (not res!163261) (not e!134206))))

(declare-fun lt!303681 () tuple2!16878)

(declare-fun lt!303689 () tuple2!16878)

(declare-fun bitIndex!0 ((_ BitVec 32) (_ BitVec 32) (_ BitVec 32)) (_ BitVec 64))

(assert (=> b!195180 (= res!163261 (= (bitIndex!0 (size!4415 (buf!4901 (_1!9084 lt!303681))) (currentByte!9197 (_1!9084 lt!303681)) (currentBit!9192 (_1!9084 lt!303681))) (bitIndex!0 (size!4415 (buf!4901 (_1!9084 lt!303689))) (currentByte!9197 (_1!9084 lt!303689)) (currentBit!9192 (_1!9084 lt!303689)))))))

(declare-fun lt!303694 () Unit!13785)

(declare-fun lt!303703 () BitStream!7938)

(declare-fun readBitPrefixLemma!0 (BitStream!7938 BitStream!7938) Unit!13785)

(assert (=> b!195180 (= lt!303694 (readBitPrefixLemma!0 lt!303703 (_2!9083 lt!303676)))))

(assert (=> b!195180 (= lt!303689 (readBitPure!0 (BitStream!7939 (buf!4901 (_2!9083 lt!303676)) (currentByte!9197 thiss!1204) (currentBit!9192 thiss!1204))))))

(assert (=> b!195180 (= lt!303681 (readBitPure!0 lt!303703))))

(declare-fun e!134214 () Bool)

(assert (=> b!195180 e!134214))

(declare-fun res!163268 () Bool)

(assert (=> b!195180 (=> (not res!163268) (not e!134214))))

(declare-fun invariant!0 ((_ BitVec 32) (_ BitVec 32) (_ BitVec 32)) Bool)

(assert (=> b!195180 (= res!163268 (invariant!0 (currentBit!9192 thiss!1204) (currentByte!9197 thiss!1204) (size!4415 (buf!4901 (_2!9083 lt!303692)))))))

(assert (=> b!195180 (= lt!303703 (BitStream!7939 (buf!4901 (_2!9083 lt!303692)) (currentByte!9197 thiss!1204) (currentBit!9192 thiss!1204)))))

(declare-fun b!195181 () Bool)

(declare-fun lt!303701 () BitStream!7938)

(declare-fun lt!303688 () (_ BitVec 64))

(assert (=> b!195181 (= e!134205 (and (= lt!303685 (bvsub lt!303688 #b0000000000000000000000000000000000000000000000000000000000000001)) (or (not (= (_1!9086 lt!303679) lt!303701)) (= (_2!9085 lt!303680) (_2!9085 lt!303702)))))))

(declare-fun b!195182 () Bool)

(declare-fun e!134216 () Bool)

(assert (=> b!195182 (= e!134216 e!134209)))

(declare-fun res!163257 () Bool)

(assert (=> b!195182 (=> (not res!163257) (not e!134209))))

(declare-fun lt!303691 () (_ BitVec 64))

(declare-fun lt!303684 () (_ BitVec 64))

(assert (=> b!195182 (= res!163257 (= lt!303691 (bvadd #b0000000000000000000000000000000000000000000000000000000000000001 lt!303684)))))

(assert (=> b!195182 (= lt!303691 (bitIndex!0 (size!4415 (buf!4901 (_2!9083 lt!303692))) (currentByte!9197 (_2!9083 lt!303692)) (currentBit!9192 (_2!9083 lt!303692))))))

(assert (=> b!195182 (= lt!303684 (bitIndex!0 (size!4415 (buf!4901 thiss!1204)) (currentByte!9197 thiss!1204) (currentBit!9192 thiss!1204)))))

(declare-fun b!195183 () Bool)

(declare-fun res!163271 () Bool)

(assert (=> b!195183 (=> res!163271 e!134202)))

(declare-fun isPrefixOf!0 (BitStream!7938 BitStream!7938) Bool)

(assert (=> b!195183 (= res!163271 (not (isPrefixOf!0 thiss!1204 (_2!9083 lt!303692))))))

(declare-fun b!195184 () Bool)

(declare-fun res!163274 () Bool)

(declare-fun e!134215 () Bool)

(assert (=> b!195184 (=> res!163274 e!134215)))

(assert (=> b!195184 (= res!163274 (not (= (bitIndex!0 (size!4415 (buf!4901 (_1!9085 lt!303680))) (currentByte!9197 (_1!9085 lt!303680)) (currentBit!9192 (_1!9085 lt!303680))) (bitIndex!0 (size!4415 (buf!4901 (_2!9086 lt!303677))) (currentByte!9197 (_2!9086 lt!303677)) (currentBit!9192 (_2!9086 lt!303677))))))))

(declare-fun b!195185 () Bool)

(declare-fun res!163269 () Bool)

(assert (=> b!195185 (=> (not res!163269) (not e!134207))))

(assert (=> b!195185 (= res!163269 (= (_2!9085 lt!303680) (bvand v!189 (onesLSBLong!0 nBits!348))))))

(declare-fun b!195186 () Bool)

(assert (=> b!195186 (= e!134215 true)))

(assert (=> b!195186 e!134207))

(declare-fun res!163262 () Bool)

(assert (=> b!195186 (=> (not res!163262) (not e!134207))))

(assert (=> b!195186 (= res!163262 (= (size!4415 (buf!4901 thiss!1204)) (size!4415 (buf!4901 (_2!9083 lt!303676)))))))

(declare-fun res!163264 () Bool)

(declare-fun e!134210 () Bool)

(assert (=> start!41554 (=> (not res!163264) (not e!134210))))

(assert (=> start!41554 (= res!163264 (and (bvsge nBits!348 #b00000000000000000000000000000000) (bvsle nBits!348 #b00000000000000000000000001000000) (bvsle #b00000000000000000000000000000000 i!590) (bvsle i!590 nBits!348)))))

(assert (=> start!41554 e!134210))

(assert (=> start!41554 true))

(declare-fun e!134213 () Bool)

(declare-fun inv!12 (BitStream!7938) Bool)

(assert (=> start!41554 (and (inv!12 thiss!1204) e!134213)))

(declare-fun b!195187 () Bool)

(declare-fun e!134211 () Bool)

(assert (=> b!195187 (= e!134211 e!134202)))

(declare-fun res!163272 () Bool)

(assert (=> b!195187 (=> res!163272 e!134202)))

(assert (=> b!195187 (= res!163272 (not (= lt!303699 (bvsub (bvsub (bvadd lt!303688 ((_ sign_extend 32) nBits!348)) ((_ sign_extend 32) i!590)) #b0000000000000000000000000000000000000000000000000000000000000001))))))

(assert (=> b!195187 (= lt!303699 (bitIndex!0 (size!4415 (buf!4901 (_2!9083 lt!303676))) (currentByte!9197 (_2!9083 lt!303676)) (currentBit!9192 (_2!9083 lt!303676))))))

(assert (=> b!195187 (isPrefixOf!0 thiss!1204 (_2!9083 lt!303676))))

(declare-fun lt!303675 () Unit!13785)

(declare-fun lemmaIsPrefixTransitive!0 (BitStream!7938 BitStream!7938 BitStream!7938) Unit!13785)

(assert (=> b!195187 (= lt!303675 (lemmaIsPrefixTransitive!0 thiss!1204 (_2!9083 lt!303692) (_2!9083 lt!303676)))))

(declare-fun appendBitsLSBFirstLoopTR!0 (BitStream!7938 (_ BitVec 64) (_ BitVec 32) (_ BitVec 32)) tuple2!16876)

(assert (=> b!195187 (= lt!303676 (appendBitsLSBFirstLoopTR!0 (_2!9083 lt!303692) v!189 nBits!348 (bvadd #b00000000000000000000000000000001 i!590)))))

(declare-fun b!195188 () Bool)

(declare-fun res!163263 () Bool)

(declare-fun e!134208 () Bool)

(assert (=> b!195188 (=> (not res!163263) (not e!134208))))

(assert (=> b!195188 (= res!163263 (invariant!0 (currentBit!9192 thiss!1204) (currentByte!9197 thiss!1204) (size!4415 (buf!4901 thiss!1204))))))

(declare-fun b!195189 () Bool)

(declare-fun res!163255 () Bool)

(assert (=> b!195189 (=> (not res!163255) (not e!134205))))

(assert (=> b!195189 (= res!163255 (= (_1!9086 lt!303679) (withMovedBitIndex!0 (_2!9086 lt!303679) (bvsub lt!303688 lt!303699))))))

(declare-fun b!195190 () Bool)

(declare-fun res!163267 () Bool)

(assert (=> b!195190 (=> (not res!163267) (not e!134209))))

(assert (=> b!195190 (= res!163267 (isPrefixOf!0 thiss!1204 (_2!9083 lt!303692)))))

(declare-fun b!195191 () Bool)

(declare-fun res!163256 () Bool)

(assert (=> b!195191 (=> (not res!163256) (not e!134208))))

(assert (=> b!195191 (= res!163256 (not (= i!590 nBits!348)))))

(declare-fun b!195192 () Bool)

(assert (=> b!195192 (= e!134204 (= (bitIndex!0 (size!4415 (buf!4901 (_1!9084 lt!303678))) (currentByte!9197 (_1!9084 lt!303678)) (currentBit!9192 (_1!9084 lt!303678))) lt!303691))))

(declare-fun b!195193 () Bool)

(declare-fun res!163260 () Bool)

(assert (=> b!195193 (=> res!163260 e!134202)))

(assert (=> b!195193 (= res!163260 (not (isPrefixOf!0 (_2!9083 lt!303692) (_2!9083 lt!303676))))))

(declare-fun b!195194 () Bool)

(assert (=> b!195194 (= e!134206 (= (_2!9084 lt!303681) (_2!9084 lt!303689)))))

(declare-fun b!195195 () Bool)

(declare-fun array_inv!4156 (array!10012) Bool)

(assert (=> b!195195 (= e!134213 (array_inv!4156 (buf!4901 thiss!1204)))))

(declare-fun b!195196 () Bool)

(declare-fun res!163258 () Bool)

(assert (=> b!195196 (=> res!163258 e!134202)))

(assert (=> b!195196 (= res!163258 (not (invariant!0 (currentBit!9192 (_2!9083 lt!303676)) (currentByte!9197 (_2!9083 lt!303676)) (size!4415 (buf!4901 (_2!9083 lt!303676))))))))

(declare-fun b!195197 () Bool)

(assert (=> b!195197 (= e!134208 (not e!134211))))

(declare-fun res!163253 () Bool)

(assert (=> b!195197 (=> res!163253 e!134211)))

(assert (=> b!195197 (= res!163253 (not (= lt!303688 (bvadd #b0000000000000000000000000000000000000000000000000000000000000001 lt!303685))))))

(assert (=> b!195197 (= lt!303688 (bitIndex!0 (size!4415 (buf!4901 (_2!9083 lt!303692))) (currentByte!9197 (_2!9083 lt!303692)) (currentBit!9192 (_2!9083 lt!303692))))))

(assert (=> b!195197 (= lt!303685 (bitIndex!0 (size!4415 (buf!4901 thiss!1204)) (currentByte!9197 thiss!1204) (currentBit!9192 thiss!1204)))))

(assert (=> b!195197 e!134216))

(declare-fun res!163265 () Bool)

(assert (=> b!195197 (=> (not res!163265) (not e!134216))))

(assert (=> b!195197 (= res!163265 (= (size!4415 (buf!4901 thiss!1204)) (size!4415 (buf!4901 (_2!9083 lt!303692)))))))

(declare-fun appendBit!0 (BitStream!7938 Bool) tuple2!16876)

(assert (=> b!195197 (= lt!303692 (appendBit!0 thiss!1204 lt!303683))))

(assert (=> b!195197 (= lt!303683 (not (= (bvand v!189 lt!303686) #b0000000000000000000000000000000000000000000000000000000000000000)))))

(assert (=> b!195197 (= lt!303686 (bvshl #b0000000000000000000000000000000000000000000000000000000000000001 ((_ sign_extend 32) i!590)))))

(declare-fun b!195198 () Bool)

(assert (=> b!195198 (= e!134212 e!134215)))

(declare-fun res!163273 () Bool)

(assert (=> b!195198 (=> res!163273 e!134215)))

(assert (=> b!195198 (= res!163273 (not (= (_1!9086 lt!303679) lt!303701)))))

(assert (=> b!195198 e!134205))

(declare-fun res!163275 () Bool)

(assert (=> b!195198 (=> (not res!163275) (not e!134205))))

(declare-fun lt!303693 () tuple2!16880)

(assert (=> b!195198 (= res!163275 (and (= (_2!9085 lt!303680) (_2!9085 lt!303693)) (= (_1!9085 lt!303680) (_1!9085 lt!303693))))))

(declare-fun lt!303695 () Unit!13785)

(declare-fun lemmaReadNBitsLSBFirstsLoopIsCorrect!0 (BitStream!7938 (_ BitVec 32) (_ BitVec 32) (_ BitVec 64)) Unit!13785)

(assert (=> b!195198 (= lt!303695 (lemmaReadNBitsLSBFirstsLoopIsCorrect!0 (_1!9086 lt!303677) nBits!348 i!590 lt!303690))))

(assert (=> b!195198 (= lt!303693 (readNBitsLSBFirstsLoopPure!0 lt!303701 nBits!348 (bvadd #b00000000000000000000000000000001 i!590) lt!303700))))

(assert (=> b!195198 (= lt!303701 (withMovedBitIndex!0 (_1!9086 lt!303677) #b0000000000000000000000000000000000000000000000000000000000000001))))

(declare-fun b!195199 () Bool)

(assert (=> b!195199 (= e!134214 (invariant!0 (currentBit!9192 thiss!1204) (currentByte!9197 thiss!1204) (size!4415 (buf!4901 (_2!9083 lt!303676)))))))

(declare-fun b!195200 () Bool)

(assert (=> b!195200 (= e!134210 e!134208)))

(declare-fun res!163254 () Bool)

(assert (=> b!195200 (=> (not res!163254) (not e!134208))))

(assert (=> b!195200 (= res!163254 (validate_offset_bits!1 ((_ sign_extend 32) (size!4415 (buf!4901 thiss!1204))) ((_ sign_extend 32) (currentByte!9197 thiss!1204)) ((_ sign_extend 32) (currentBit!9192 thiss!1204)) lt!303698))))

(assert (=> b!195200 (= lt!303698 ((_ sign_extend 32) (bvsub nBits!348 i!590)))))

(assert (= (and start!41554 res!163264) b!195200))

(assert (= (and b!195200 res!163254) b!195188))

(assert (= (and b!195188 res!163263) b!195191))

(assert (= (and b!195191 res!163256) b!195197))

(assert (= (and b!195197 res!163265) b!195182))

(assert (= (and b!195182 res!163257) b!195190))

(assert (= (and b!195190 res!163267) b!195177))

(assert (= (and b!195177 res!163270) b!195192))

(assert (= (and b!195197 (not res!163253)) b!195187))

(assert (= (and b!195187 (not res!163272)) b!195196))

(assert (= (and b!195196 (not res!163258)) b!195176))

(assert (= (and b!195176 (not res!163259)) b!195193))

(assert (= (and b!195193 (not res!163260)) b!195183))

(assert (= (and b!195183 (not res!163271)) b!195180))

(assert (= (and b!195180 res!163268) b!195199))

(assert (= (and b!195180 res!163261) b!195194))

(assert (= (and b!195180 (not res!163266)) b!195198))

(assert (= (and b!195198 res!163275) b!195179))

(assert (= (and b!195179 res!163252) b!195189))

(assert (= (and b!195189 res!163255) b!195181))

(assert (= (and b!195198 (not res!163273)) b!195184))

(assert (= (and b!195184 (not res!163274)) b!195186))

(assert (= (and b!195186 res!163262) b!195185))

(assert (= (and b!195185 res!163269) b!195178))

(assert (= start!41554 b!195195))

(declare-fun m!302357 () Bool)

(assert (=> b!195188 m!302357))

(declare-fun m!302359 () Bool)

(assert (=> b!195197 m!302359))

(declare-fun m!302361 () Bool)

(assert (=> b!195197 m!302361))

(declare-fun m!302363 () Bool)

(assert (=> b!195197 m!302363))

(assert (=> b!195182 m!302359))

(assert (=> b!195182 m!302361))

(declare-fun m!302365 () Bool)

(assert (=> b!195189 m!302365))

(declare-fun m!302367 () Bool)

(assert (=> b!195180 m!302367))

(declare-fun m!302369 () Bool)

(assert (=> b!195180 m!302369))

(declare-fun m!302371 () Bool)

(assert (=> b!195180 m!302371))

(declare-fun m!302373 () Bool)

(assert (=> b!195180 m!302373))

(declare-fun m!302375 () Bool)

(assert (=> b!195180 m!302375))

(declare-fun m!302377 () Bool)

(assert (=> b!195180 m!302377))

(declare-fun m!302379 () Bool)

(assert (=> b!195180 m!302379))

(declare-fun m!302381 () Bool)

(assert (=> b!195180 m!302381))

(declare-fun m!302383 () Bool)

(assert (=> b!195180 m!302383))

(declare-fun m!302385 () Bool)

(assert (=> b!195180 m!302385))

(declare-fun m!302387 () Bool)

(assert (=> b!195180 m!302387))

(declare-fun m!302389 () Bool)

(assert (=> b!195180 m!302389))

(declare-fun m!302391 () Bool)

(assert (=> b!195180 m!302391))

(declare-fun m!302393 () Bool)

(assert (=> b!195180 m!302393))

(declare-fun m!302395 () Bool)

(assert (=> b!195180 m!302395))

(declare-fun m!302397 () Bool)

(assert (=> b!195180 m!302397))

(declare-fun m!302399 () Bool)

(assert (=> b!195200 m!302399))

(declare-fun m!302401 () Bool)

(assert (=> b!195179 m!302401))

(declare-fun m!302403 () Bool)

(assert (=> b!195195 m!302403))

(declare-fun m!302405 () Bool)

(assert (=> b!195199 m!302405))

(declare-fun m!302407 () Bool)

(assert (=> b!195196 m!302407))

(declare-fun m!302409 () Bool)

(assert (=> b!195183 m!302409))

(declare-fun m!302411 () Bool)

(assert (=> b!195184 m!302411))

(declare-fun m!302413 () Bool)

(assert (=> b!195184 m!302413))

(assert (=> b!195190 m!302409))

(declare-fun m!302415 () Bool)

(assert (=> b!195185 m!302415))

(declare-fun m!302417 () Bool)

(assert (=> b!195193 m!302417))

(declare-fun m!302419 () Bool)

(assert (=> b!195192 m!302419))

(declare-fun m!302421 () Bool)

(assert (=> b!195198 m!302421))

(declare-fun m!302423 () Bool)

(assert (=> b!195198 m!302423))

(declare-fun m!302425 () Bool)

(assert (=> b!195198 m!302425))

(declare-fun m!302427 () Bool)

(assert (=> b!195187 m!302427))

(declare-fun m!302429 () Bool)

(assert (=> b!195187 m!302429))

(declare-fun m!302431 () Bool)

(assert (=> b!195187 m!302431))

(declare-fun m!302433 () Bool)

(assert (=> b!195187 m!302433))

(declare-fun m!302435 () Bool)

(assert (=> start!41554 m!302435))

(declare-fun m!302437 () Bool)

(assert (=> b!195177 m!302437))

(assert (=> b!195177 m!302437))

(declare-fun m!302439 () Bool)

(assert (=> b!195177 m!302439))

(check-sat (not b!195192) (not b!195196) (not b!195195) (not b!195193) (not b!195189) (not b!195187) (not b!195183) (not b!195197) (not b!195185) (not b!195179) (not b!195190) (not b!195199) (not b!195180) (not b!195200) (not b!195177) (not b!195184) (not b!195198) (not b!195182) (not start!41554) (not b!195188))
